(set-logic QF_NRA)
(set-info :source |Benchmarks generated from hycomp (https://es-static.fbk.eu/tools/hycomp/). BMC instances of non-linear hybrid automata taken from: Alessandro Cimatti, Sergio Mover, Stefano Tonetta, A quantifier-free SMT encoding of non-linear hybrid automata, FMCAD 2012 and Alessandro Cimatti, Sergio Mover, Stefano Tonetta, Quantier-free encoding of invariants for Hybrid Systems, Formal Methods in System Design. This instance solves a BMC problem of depth 1 and uses the quantifier free encoding with equivalences and lemmas encoding. Contacts: Sergio Mover (mover@fbk.eu), Stefano Tonetta (tonettas@fbk.eu), Alessandro Cimatti (cimatti@fbk.eu).|)
(set-info :smt-lib-version 2.0)
(set-info :category "industrial")
(set-info :status unsat)
;; MathSAT API call trace
;; generated on Mon Mar 19 10:43:49 2012
(declare-fun b.event_is_timed__AT0 () Bool)
(declare-fun b.y__AT0 () Real)
(declare-fun b.counter.0__AT0 () Bool)
(declare-fun b.counter.1__AT0 () Bool)
(declare-fun b.EVENT.0__AT0 () Bool)
(declare-fun b.bool_atom__AT0 () Bool)
(declare-fun b.counter.2__AT0 () Bool)
(declare-fun b.speed_y__AT1 () Real)
(declare-fun b.event_is_timed__AT1 () Bool)
(declare-fun b.x__AT0 () Real)
(declare-fun b.time__AT1 () Real)
(declare-fun b.bool_atom__AT1 () Bool)
(declare-fun b.g__AT0 () Real)
(declare-fun b.EVENT.1__AT0 () Bool)
(declare-fun b.time__AT0 () Real)
(declare-fun b.delta__AT0 () Real)
(declare-fun b.counter.3__AT0 () Bool)
(declare-fun b.speed_y__AT0 () Real)
(declare-fun b.y__AT1 () Real)
(declare-fun b.counter.0__AT1 () Bool)
(declare-fun b.counter.1__AT1 () Bool)
(declare-fun b.counter.2__AT1 () Bool)
(declare-fun b.counter.3__AT1 () Bool)
(declare-fun b.delta__AT1 () Real)
(declare-fun b.EVENT.0__AT1 () Bool)
(declare-fun b.x__AT1 () Real)
(declare-fun b.EVENT.1__AT1 () Bool)
(assert (let ((.def_70 (* (- 1.0) b.g__AT0)))
(let ((.def_73 (* (/ 1 2) .def_70)))
(let ((.def_85 (* 2.0 .def_73)))
(let ((.def_298 (* .def_85 b.delta__AT1)))
(let ((.def_299 (+ b.speed_y__AT1 .def_298)))
(let ((.def_316 (<= .def_299 0.0 )))
(let ((.def_317 (not .def_316)))
(let ((.def_314 (<= b.speed_y__AT1 0.0 )))
(let ((.def_337 (or .def_314 .def_317)))
(let ((.def_302 (<= 0.0 b.speed_y__AT1)))
(let ((.def_303 (not .def_302)))
(let ((.def_300 (<= 0.0 .def_299)))
(let ((.def_336 (or .def_300 .def_303)))
(let ((.def_338 (and .def_336 .def_337)))
(let ((.def_125 (<= 0.0 b.g__AT0)))
(let ((.def_339 (or .def_125 .def_338)))
(let ((.def_301 (not .def_300)))
(let ((.def_333 (or .def_301 .def_302)))
(let ((.def_315 (not .def_314)))
(let ((.def_332 (or .def_315 .def_316)))
(let ((.def_334 (and .def_332 .def_333)))
(let ((.def_120 (<= b.g__AT0 0.0 )))
(let ((.def_335 (or .def_120 .def_334)))
(let ((.def_340 (and .def_335 .def_339)))
(let ((.def_329 (and .def_314 .def_316)))
(let ((.def_328 (and .def_300 .def_302)))
(let ((.def_330 (or .def_328 .def_329)))
(let ((.def_289 (* b.speed_y__AT1 b.delta__AT1)))
(let ((.def_287 (* b.delta__AT1 b.delta__AT1)))
(let ((.def_288 (* .def_73 .def_287)))
(let ((.def_290 (+ .def_288 .def_289)))
(let ((.def_275 (* (- 1.0) b.x__AT1)))
(let ((.def_276 (* b.x__AT1 .def_275)))
(let ((.def_291 (* (- 1.0) .def_276)))
(let ((.def_294 (+ .def_291 .def_290)))
(let ((.def_295 (+ b.y__AT1 .def_294)))
(let ((.def_308 (<= .def_295 0.0 )))
(let ((.def_322 (not .def_308)))
(let ((.def_306 (<= b.y__AT1 .def_276)))
(let ((.def_323 (or .def_306 .def_322)))
(let ((.def_277 (<= .def_276 b.y__AT1)))
(let ((.def_320 (not .def_277)))
(let ((.def_296 (<= 0.0 .def_295)))
(let ((.def_321 (or .def_296 .def_320)))
(let ((.def_324 (and .def_321 .def_323)))
(let ((.def_318 (or .def_315 .def_317)))
(let ((.def_319 (not .def_318)))
(let ((.def_325 (or .def_319 .def_324)))
(let ((.def_310 (not .def_296)))
(let ((.def_311 (or .def_277 .def_310)))
(let ((.def_307 (not .def_306)))
(let ((.def_309 (or .def_307 .def_308)))
(let ((.def_312 (and .def_309 .def_311)))
(let ((.def_304 (or .def_301 .def_303)))
(let ((.def_305 (not .def_304)))
(let ((.def_313 (or .def_305 .def_312)))
(let ((.def_326 (and .def_313 .def_325)))
(let ((.def_297 (and .def_277 .def_296)))
(let ((.def_327 (and .def_297 .def_326)))
(let ((.def_331 (and .def_327 .def_330)))
(let ((.def_341 (and .def_331 .def_340)))
(let ((.def_62 (<= b.g__AT0 10.0 )))
(let ((.def_61 (<= 8.0 b.g__AT0)))
(let ((.def_63 (and .def_61 .def_62)))
(let ((.def_342 (and .def_63 .def_341)))
(let ((.def_32 (not b.counter.0__AT0)))
(let ((.def_30 (not b.counter.1__AT0)))
(let ((.def_33 (and .def_30 .def_32)))
(let ((.def_282 (or .def_33 b.counter.3__AT0)))
(let ((.def_38 (not b.counter.3__AT0)))
(let ((.def_35 (not b.counter.2__AT0)))
(let ((.def_36 (and .def_33 .def_35)))
(let ((.def_281 (or .def_36 .def_38)))
(let ((.def_283 (and .def_281 .def_282)))
(let ((.def_278 (and .def_63 .def_277)))
(let ((.def_272 (not b.EVENT.0__AT1)))
(let ((.def_270 (not b.EVENT.1__AT1)))
(let ((.def_273 (or .def_270 .def_272)))
(let ((.def_6 (not b.counter.0__AT1)))
(let ((.def_4 (not b.counter.1__AT1)))
(let ((.def_263 (or .def_4 .def_6)))
(let ((.def_267 (or b.counter.3__AT1 .def_263)))
(let ((.def_264 (or b.counter.2__AT1 .def_263)))
(let ((.def_9 (not b.counter.2__AT1)))
(let ((.def_262 (or .def_6 .def_9)))
(let ((.def_265 (and .def_262 .def_264)))
(let ((.def_12 (not b.counter.3__AT1)))
(let ((.def_266 (or .def_12 .def_265)))
(let ((.def_268 (and .def_266 .def_267)))
(let ((.def_274 (and .def_268 .def_273)))
(let ((.def_279 (and .def_274 .def_278)))
(let ((.def_257 (<= 0.0 b.delta__AT0)))
(let ((.def_51 (not b.EVENT.0__AT0)))
(let ((.def_49 (not b.EVENT.1__AT0)))
(let ((.def_134 (and .def_49 .def_51)))
(let ((.def_136 (not .def_134)))
(let ((.def_258 (or .def_136 .def_257)))
(let ((.def_259 (or b.EVENT.1__AT0 .def_258)))
(let ((.def_172 (= b.bool_atom__AT0 b.bool_atom__AT1)))
(let ((.def_167 (= b.counter.0__AT1 b.counter.0__AT0)))
(let ((.def_165 (= b.counter.1__AT1 b.counter.1__AT0)))
(let ((.def_163 (= b.counter.2__AT1 b.counter.2__AT0)))
(let ((.def_162 (= b.counter.3__AT1 b.counter.3__AT0)))
(let ((.def_164 (and .def_162 .def_163)))
(let ((.def_166 (and .def_164 .def_165)))
(let ((.def_168 (and .def_166 .def_167)))
(let ((.def_253 (and .def_168 .def_172)))
(let ((.def_254 (or .def_136 .def_253)))
(let ((.def_255 (or b.EVENT.1__AT0 .def_254)))
(let ((.def_242 (* b.delta__AT0 .def_70)))
(let ((.def_243 (* (- 1.0) b.speed_y__AT1)))
(let ((.def_246 (+ .def_243 .def_242)))
(let ((.def_247 (+ b.speed_y__AT0 .def_246)))
(let ((.def_248 (= .def_247 0.0 )))
(let ((.def_234 (* (- 1.0) b.y__AT1)))
(let ((.def_76 (* b.delta__AT0 b.speed_y__AT0)))
(let ((.def_237 (+ .def_76 .def_234)))
(let ((.def_69 (* b.delta__AT0 b.delta__AT0)))
(let ((.def_74 (* .def_69 .def_73)))
(let ((.def_238 (+ .def_74 .def_237)))
(let ((.def_239 (+ b.y__AT0 .def_238)))
(let ((.def_240 (= .def_239 0.0 )))
(let ((.def_154 (= b.x__AT0 b.x__AT1)))
(let ((.def_241 (and .def_154 .def_240)))
(let ((.def_249 (and .def_241 .def_248)))
(let ((.def_250 (or .def_136 .def_249)))
(let ((.def_157 (= b.y__AT0 b.y__AT1)))
(let ((.def_229 (and .def_154 .def_157)))
(let ((.def_160 (= b.speed_y__AT0 b.speed_y__AT1)))
(let ((.def_230 (and .def_160 .def_229)))
(let ((.def_226 (= b.delta__AT0 0.0 )))
(let ((.def_227 (and .def_134 .def_226)))
(let ((.def_228 (not .def_227)))
(let ((.def_231 (or .def_228 .def_230)))
(let ((.def_232 (or b.EVENT.1__AT0 .def_231)))
(let ((.def_219 (and .def_160 .def_168)))
(let ((.def_220 (or b.bool_atom__AT0 .def_219)))
(let ((.def_195 (or .def_6 b.counter.0__AT0)))
(let ((.def_194 (or b.counter.0__AT1 .def_32)))
(let ((.def_196 (and .def_194 .def_195)))
(let ((.def_197 (and .def_4 .def_196)))
(let ((.def_198 (or b.counter.1__AT0 .def_197)))
(let ((.def_193 (or b.counter.1__AT1 .def_30)))
(let ((.def_199 (and .def_193 .def_198)))
(let ((.def_210 (and .def_9 .def_199)))
(let ((.def_211 (or b.counter.2__AT0 .def_210)))
(let ((.def_205 (and .def_4 .def_32)))
(let ((.def_206 (or b.counter.1__AT0 .def_205)))
(let ((.def_207 (and .def_193 .def_206)))
(let ((.def_208 (and b.counter.2__AT1 .def_207)))
(let ((.def_209 (or .def_35 .def_208)))
(let ((.def_212 (and .def_209 .def_211)))
(let ((.def_213 (and b.counter.3__AT1 .def_212)))
(let ((.def_214 (or b.counter.3__AT0 .def_213)))
(let ((.def_200 (and b.counter.2__AT1 .def_199)))
(let ((.def_201 (or b.counter.2__AT0 .def_200)))
(let ((.def_189 (or b.counter.1__AT1 b.counter.1__AT0)))
(let ((.def_187 (and .def_4 b.counter.0__AT1)))
(let ((.def_188 (or .def_30 .def_187)))
(let ((.def_190 (and .def_188 .def_189)))
(let ((.def_191 (and .def_9 .def_190)))
(let ((.def_192 (or .def_35 .def_191)))
(let ((.def_202 (and .def_192 .def_201)))
(let ((.def_203 (and .def_12 .def_202)))
(let ((.def_204 (or .def_38 .def_203)))
(let ((.def_215 (and .def_204 .def_214)))
(let ((.def_184 (* b.speed_y__AT0 b.speed_y__AT0)))
(let ((.def_183 (* b.speed_y__AT1 b.speed_y__AT1)))
(let ((.def_185 (= .def_183 .def_184)))
(let ((.def_181 (+ b.speed_y__AT0 b.speed_y__AT1)))
(let ((.def_182 (= .def_181 0.0 )))
(let ((.def_186 (and .def_182 .def_185)))
(let ((.def_216 (and .def_186 .def_215)))
(let ((.def_180 (not b.bool_atom__AT0)))
(let ((.def_217 (or .def_180 .def_216)))
(let ((.def_56 (* (- 1.0) b.x__AT0)))
(let ((.def_57 (* b.x__AT0 .def_56)))
(let ((.def_177 (= b.y__AT0 .def_57)))
(let ((.def_90 (<= 0.0 b.speed_y__AT0)))
(let ((.def_91 (not .def_90)))
(let ((.def_178 (and .def_91 .def_177)))
(let ((.def_179 (= b.bool_atom__AT0 .def_178)))
(let ((.def_218 (and .def_179 .def_217)))
(let ((.def_221 (and .def_218 .def_220)))
(let ((.def_222 (and .def_154 .def_221)))
(let ((.def_223 (and .def_157 .def_222)))
(let ((.def_224 (or .def_134 .def_223)))
(let ((.def_225 (or b.EVENT.1__AT0 .def_224)))
(let ((.def_233 (and .def_225 .def_232)))
(let ((.def_251 (and .def_233 .def_250)))
(let ((.def_141 (= b.time__AT0 b.time__AT1)))
(let ((.def_155 (and .def_141 .def_154)))
(let ((.def_158 (and .def_155 .def_157)))
(let ((.def_161 (and .def_158 .def_160)))
(let ((.def_169 (and .def_161 .def_168)))
(let ((.def_173 (and .def_169 .def_172)))
(let ((.def_174 (or .def_49 .def_173)))
(let ((.def_144 (* (- 1.0) b.time__AT1)))
(let ((.def_147 (+ b.delta__AT0 .def_144)))
(let ((.def_148 (+ b.time__AT0 .def_147)))
(let ((.def_149 (= .def_148 0.0 )))
(let ((.def_150 (or .def_136 .def_149)))
(let ((.def_151 (or b.EVENT.1__AT0 .def_150)))
(let ((.def_142 (or .def_134 .def_141)))
(let ((.def_143 (or b.EVENT.1__AT0 .def_142)))
(let ((.def_152 (and .def_143 .def_151)))
(let ((.def_175 (and .def_152 .def_174)))
(let ((.def_138 (= .def_136 b.event_is_timed__AT1)))
(let ((.def_135 (= b.event_is_timed__AT0 .def_134)))
(let ((.def_139 (and .def_135 .def_138)))
(let ((.def_176 (and .def_139 .def_175)))
(let ((.def_252 (and .def_176 .def_251)))
(let ((.def_256 (and .def_252 .def_255)))
(let ((.def_260 (and .def_256 .def_259)))
(let ((.def_261 (and .def_49 .def_260)))
(let ((.def_280 (and .def_261 .def_279)))
(let ((.def_284 (and .def_280 .def_283)))
(let ((.def_86 (* b.delta__AT0 .def_85)))
(let ((.def_87 (+ b.speed_y__AT0 .def_86)))
(let ((.def_104 (<= .def_87 0.0 )))
(let ((.def_105 (not .def_104)))
(let ((.def_102 (<= b.speed_y__AT0 0.0 )))
(let ((.def_127 (or .def_102 .def_105)))
(let ((.def_88 (<= 0.0 .def_87)))
(let ((.def_126 (or .def_88 .def_91)))
(let ((.def_128 (and .def_126 .def_127)))
(let ((.def_129 (or .def_125 .def_128)))
(let ((.def_89 (not .def_88)))
(let ((.def_122 (or .def_89 .def_90)))
(let ((.def_103 (not .def_102)))
(let ((.def_121 (or .def_103 .def_104)))
(let ((.def_123 (and .def_121 .def_122)))
(let ((.def_124 (or .def_120 .def_123)))
(let ((.def_130 (and .def_124 .def_129)))
(let ((.def_117 (and .def_102 .def_104)))
(let ((.def_116 (and .def_88 .def_90)))
(let ((.def_118 (or .def_116 .def_117)))
(let ((.def_77 (+ .def_74 .def_76)))
(let ((.def_78 (* (- 1.0) .def_57)))
(let ((.def_81 (+ .def_78 .def_77)))
(let ((.def_82 (+ b.y__AT0 .def_81)))
(let ((.def_96 (<= .def_82 0.0 )))
(let ((.def_110 (not .def_96)))
(let ((.def_94 (<= b.y__AT0 .def_57)))
(let ((.def_111 (or .def_94 .def_110)))
(let ((.def_58 (<= .def_57 b.y__AT0)))
(let ((.def_108 (not .def_58)))
(let ((.def_83 (<= 0.0 .def_82)))
(let ((.def_109 (or .def_83 .def_108)))
(let ((.def_112 (and .def_109 .def_111)))
(let ((.def_106 (or .def_103 .def_105)))
(let ((.def_107 (not .def_106)))
(let ((.def_113 (or .def_107 .def_112)))
(let ((.def_98 (not .def_83)))
(let ((.def_99 (or .def_58 .def_98)))
(let ((.def_95 (not .def_94)))
(let ((.def_97 (or .def_95 .def_96)))
(let ((.def_100 (and .def_97 .def_99)))
(let ((.def_92 (or .def_89 .def_91)))
(let ((.def_93 (not .def_92)))
(let ((.def_101 (or .def_93 .def_100)))
(let ((.def_114 (and .def_101 .def_113)))
(let ((.def_84 (and .def_58 .def_83)))
(let ((.def_115 (and .def_84 .def_114)))
(let ((.def_119 (and .def_115 .def_118)))
(let ((.def_131 (and .def_119 .def_130)))
(let ((.def_132 (and .def_63 .def_131)))
(let ((.def_64 (and .def_58 .def_63)))
(let ((.def_52 (or .def_49 .def_51)))
(let ((.def_42 (or .def_30 .def_32)))
(let ((.def_46 (or b.counter.3__AT0 .def_42)))
(let ((.def_43 (or b.counter.2__AT0 .def_42)))
(let ((.def_41 (or .def_32 .def_35)))
(let ((.def_44 (and .def_41 .def_43)))
(let ((.def_45 (or .def_38 .def_44)))
(let ((.def_47 (and .def_45 .def_46)))
(let ((.def_53 (and .def_47 .def_52)))
(let ((.def_65 (and .def_53 .def_64)))
(let ((.def_39 (and .def_36 .def_38)))
(let ((.def_27 (= b.y__AT0 10.0 )))
(let ((.def_23 (= b.x__AT0 0.0 )))
(let ((.def_19 (= b.time__AT0 0.0 )))
(let ((.def_21 (and .def_19 b.event_is_timed__AT0)))
(let ((.def_24 (and .def_21 .def_23)))
(let ((.def_28 (and .def_24 .def_27)))
(let ((.def_40 (and .def_28 .def_39)))
(let ((.def_66 (and .def_40 .def_65)))
(let ((.def_7 (and .def_4 .def_6)))
(let ((.def_14 (or .def_7 b.counter.3__AT1)))
(let ((.def_10 (and .def_7 .def_9)))
(let ((.def_13 (or .def_10 .def_12)))
(let ((.def_15 (and .def_13 .def_14)))
(let ((.def_16 (not .def_15)))
(let ((.def_67 (and .def_16 .def_66)))
(let ((.def_133 (and .def_67 .def_132)))
(let ((.def_285 (and .def_133 .def_284)))
(let ((.def_343 (and .def_285 .def_342)))
.def_343))))))))))))))))))))))))))))))))))))))))))))))))))))))))))))))))))))))))))))))))))))))))))))))))))))))))))))))))))))))))))))))))))))))))))))))))))))))))))))))))))))))))))))))))))))))))))))))))))))))))))))))))))))))))))))))))))))))))))))))))))))))))))))))))))))))))))))))))))))))))))))))))))))))))))
(check-sat)
(exit)
